p cnf 441 100
-43 44 412 -423 0 
-44 43 413 -423 0 
-45 121 124 125 159 161 213 215 219 220 306 310 311 312 316 317 327 406 407 409 414 -423 0 
-46 59 413 -423 0 
-47 154 156 362 365 415 -423 0 
-48 2 13 52 53 67 84 289 415 -423 0 
-49 413 -423 0 
-50 24 25 27 65 68 70 79 93 96 100 110 135 141 142 166 313 324 325 326 331 332 347 348 356 382 -51 416 -423 0 
-52 2 13 48 53 67 84 289 415 -423 0 
-53 2 13 48 52 67 84 289 417 -423 0 
-54 418 -423 0 
-53 2 13 48 52 67 84 289 419 -423 0 
-17 63 208 420 -423 0 
-55 222 421 -423 0 
-56 195 421 -423 0 
-57 422 -423 0 
-58 119 423 0 
-59 46 414 -423 0 
-60 1 3 8 10 11 12 14 16 19 20 21 22 26 28 29 30 31 32 33 34 35 36 37 38 42 66 69 71 72 73 75 77 78 81 82 83 85 86 90 94 95 99 102 103 104 105 106 111 112 113 116 118 120 122 127 128 129 130 131 132 133 136 137 138 139 143 145 158 160 162 163 168 169 170 171 174 175 179 180 181 182 183 184 185 186 187 188 189 190 191 192 193 198 201 202 206 207 209 210 211 212 214 216 217 224 227 228 229 230 231 232 233 235 236 238 239 240 241 242 243 244 245 246 247 248 249 250 251 252 253 254 255 256 257 258 259 260 261 262 263 264 265 266 267 268 269 270 271 272 273 274 275 276 277 278 279 280 281 282 283 284 285 290 291 293 294 295 296 297 298 299 300 305 307 308 309 314 315 318 319 320 321 322 323 329 334 336 337 338 339 340 342 343 344 345 346 350 351 352 354 355 357 358 370 371 372 373 374 375 376 377 378 379 380 381 383 384 385 386 387 388 389 390 391 392 393 394 395 396 397 398 399 400 401 402 403 404 405 408 410 411 424 -423 0 
-61 421 -423 0 
-61 423 0 
-61 425 -423 0 
-62 -63 17 208 413 -423 0 
-64 -65 24 25 27 50 68 70 79 93 96 100 110 135 141 142 166 313 324 325 326 331 332 347 348 356 382 414 -423 0 
-64 -65 24 25 27 50 68 70 79 93 96 100 110 135 141 142 166 313 324 325 326 331 332 347 348 356 382 415 -423 0 
-108 413 -423 0 
-109 304 414 -423 0 
-23 7 74 88 98 164 167 172 200 225 366 367 415 -423 0 
-23 7 74 88 98 164 167 172 200 225 366 367 413 -423 0 
-6 4 413 -423 0 
-14 1 3 8 10 11 12 16 19 20 21 22 26 28 29 30 31 32 33 34 35 36 37 38 42 60 66 69 71 72 73 75 77 78 81 82 83 85 86 90 94 95 99 102 103 104 105 106 111 112 113 116 118 120 122 127 128 129 130 131 132 133 136 137 138 139 143 145 158 160 162 163 168 169 170 171 174 175 179 180 181 182 183 184 185 186 187 188 189 190 191 192 193 198 201 202 206 207 209 210 211 212 214 216 217 224 227 228 229 230 231 232 233 235 236 238 239 240 241 242 243 244 245 246 247 248 249 250 251 252 253 254 255 256 257 258 259 260 261 262 263 264 265 266 267 268 269 270 271 272 273 274 275 276 277 278 279 280 281 282 283 284 285 290 291 293 294 295 296 297 298 299 300 305 307 308 309 314 315 318 319 320 321 322 323 329 334 336 337 338 339 340 342 343 344 345 346 350 351 352 354 355 357 358 370 371 372 373 374 375 376 377 378 379 380 381 383 384 385 386 387 388 389 390 391 392 393 394 395 396 397 398 399 400 401 402 403 404 405 408 410 411 413 -423 0 
-143 1 3 8 10 11 12 14 16 19 20 21 22 26 28 29 30 31 32 33 34 35 36 37 38 42 60 66 69 71 72 73 75 77 78 81 82 83 85 86 90 94 95 99 102 103 104 105 106 111 112 113 116 118 120 122 127 128 129 130 131 132 133 136 137 138 139 145 158 160 162 163 168 169 170 171 174 175 179 180 181 182 183 184 185 186 187 188 189 190 191 192 193 198 201 202 206 207 209 210 211 212 214 216 217 224 227 228 229 230 231 232 233 235 236 238 239 240 241 242 243 244 245 246 247 248 249 250 251 252 253 254 255 256 257 258 259 260 261 262 263 264 265 266 267 268 269 270 271 272 273 274 275 276 277 278 279 280 281 282 283 284 285 290 291 293 294 295 296 297 298 299 300 305 307 308 309 314 315 318 319 320 321 322 323 329 334 336 337 338 339 340 342 343 344 345 346 350 351 352 354 355 357 358 370 371 372 373 374 375 376 377 378 379 380 381 383 384 385 386 387 388 389 390 391 392 393 394 395 396 397 398 399 400 401 402 403 404 405 408 410 411 414 -423 0 
-57 426 -423 0 
-144 420 -423 0 
-145 1 3 8 10 11 12 14 16 19 20 21 22 26 28 29 30 31 32 33 34 35 36 37 38 42 60 66 69 71 72 73 75 77 78 81 82 83 85 86 90 94 95 99 102 103 104 105 106 111 112 113 116 118 120 122 127 128 129 130 131 132 133 136 137 138 139 143 158 160 162 163 168 169 170 171 174 175 179 180 181 182 183 184 185 186 187 188 189 190 191 192 193 198 201 202 206 207 209 210 211 212 214 216 217 224 227 228 229 230 231 232 233 235 236 238 239 240 241 242 243 244 245 246 247 248 249 250 251 252 253 254 255 256 257 258 259 260 261 262 263 264 265 266 267 268 269 270 271 272 273 274 275 276 277 278 279 280 281 282 283 284 285 290 291 293 294 295 296 297 298 299 300 305 307 308 309 314 315 318 319 320 321 322 323 329 334 336 337 338 339 340 342 343 344 345 346 350 351 352 354 355 357 358 370 371 372 373 374 375 376 377 378 379 380 381 383 384 385 386 387 388 389 390 391 392 393 394 395 396 397 398 399 400 401 402 403 404 405 408 410 411 -51 -146 -147 -148 427 -423 0 
-149 117 126 363 428 -423 0 
-150 -151 417 -423 0 
-152 -153 80 173 203 292 301 328 341 -101 87 91 92 97 114 123 140 204 226 234 302 333 429 -423 0 
-154 47 156 362 365 430 -423 0 
-155 413 -423 0 
-156 47 154 362 365 415 -423 0 
-157 418 -423 0 
-164 7 23 74 88 98 167 172 200 225 366 367 425 -423 0 
-165 421 -423 0 
-109 304 -166 24 25 27 50 65 68 70 79 93 96 100 110 135 141 142 313 324 325 326 331 332 347 348 356 382 -165 414 -423 0 
-167 7 23 74 88 98 164 172 200 225 366 367 416 -423 0 
-53 2 13 48 52 67 84 289 431 -423 0 
-15 432 -423 0 
-9 433 -423 0 
-9 434 -423 0 
-9 435 -423 0 
-65 24 25 27 50 68 70 79 93 96 100 110 135 141 142 166 313 324 325 326 331 332 347 348 356 382 414 -423 0 
-4 6 414 -423 0 
-176 423 0 
-177 423 0 
-109 304 425 -423 0 
-178 421 -423 0 
-194 364 421 -423 0 
-194 364 412 -423 0 
-17 63 208 -195 56 -62 415 -423 0 
-196 303 436 -423 0 
-197 421 -423 0 
-198 1 3 8 10 11 12 14 16 19 20 21 22 26 28 29 30 31 32 33 34 35 36 37 38 42 60 66 69 71 72 73 75 77 78 81 82 83 85 86 90 94 95 99 102 103 104 105 106 111 112 113 116 118 120 122 127 128 129 130 131 132 133 136 137 138 139 143 145 158 160 162 163 168 169 170 171 174 175 179 180 181 182 183 184 185 186 187 188 189 190 191 192 193 201 202 206 207 209 210 211 212 214 216 217 224 227 228 229 230 231 232 233 235 236 238 239 240 241 242 243 244 245 246 247 248 249 250 251 252 253 254 255 256 257 258 259 260 261 262 263 264 265 266 267 268 269 270 271 272 273 274 275 276 277 278 279 280 281 282 283 284 285 290 291 293 294 295 296 297 298 299 300 305 307 308 309 314 315 318 319 320 321 322 323 329 334 336 337 338 339 340 342 343 344 345 346 350 351 352 354 355 357 358 370 371 372 373 374 375 376 377 378 379 380 381 383 384 385 386 387 388 389 390 391 392 393 394 395 396 397 398 399 400 401 402 403 404 405 408 410 411 437 -423 0 
-54 425 -423 0 
-199 223 286 288 413 -423 0 
-54 421 -423 0 
-221 368 -6 4 423 0 
-222 55 -223 199 286 288 423 0 
-140 87 91 92 97 101 114 123 204 226 234 302 333 413 -423 0 
-140 87 91 92 97 101 114 123 204 226 234 302 333 415 -423 0 
-197 414 -423 0 
-39 5 76 335 421 -423 0 
-64 438 -423 0 
-39 5 76 335 414 -423 0 
-286 199 223 288 439 -423 0 
-39 5 76 335 425 -423 0 
-116 1 3 8 10 11 12 14 16 19 20 21 22 26 28 29 30 31 32 33 34 35 36 37 38 42 60 66 69 71 72 73 75 77 78 81 82 83 85 86 90 94 95 99 102 103 104 105 106 111 112 113 118 120 122 127 128 129 130 131 132 133 136 137 138 139 143 145 158 160 162 163 168 169 170 171 174 175 179 180 181 182 183 184 185 186 187 188 189 190 191 192 193 198 201 202 206 207 209 210 211 212 214 216 217 224 227 228 229 230 231 232 233 235 236 238 239 240 241 242 243 244 245 246 247 248 249 250 251 252 253 254 255 256 257 258 259 260 261 262 263 264 265 266 267 268 269 270 271 272 273 274 275 276 277 278 279 280 281 282 283 284 285 290 291 293 294 295 296 297 298 299 300 305 307 308 309 314 315 318 319 320 321 322 323 329 334 336 337 338 339 340 342 343 344 345 346 350 351 352 354 355 357 358 370 371 372 373 374 375 376 377 378 379 380 381 383 384 385 386 387 388 389 390 391 392 393 394 395 396 397 398 399 400 401 402 403 404 405 408 410 411 415 -423 0 
-116 1 3 8 10 11 12 14 16 19 20 21 22 26 28 29 30 31 32 33 34 35 36 37 38 42 60 66 69 71 72 73 75 77 78 81 82 83 85 86 90 94 95 99 102 103 104 105 106 111 112 113 118 120 122 127 128 129 130 131 132 133 136 137 138 139 143 145 158 160 162 163 168 169 170 171 174 175 179 180 181 182 183 184 185 186 187 188 189 190 191 192 193 198 201 202 206 207 209 210 211 212 214 216 217 224 227 228 229 230 231 232 233 235 236 238 239 240 241 242 243 244 245 246 247 248 249 250 251 252 253 254 255 256 257 258 259 260 261 262 263 264 265 266 267 268 269 270 271 272 273 274 275 276 277 278 279 280 281 282 283 284 285 290 291 293 294 295 296 297 298 299 300 305 307 308 309 314 315 318 319 320 321 322 323 329 334 336 337 338 339 340 342 343 344 345 346 350 351 352 354 355 357 358 370 371 372 373 374 375 376 377 378 379 380 381 383 384 385 386 387 388 389 390 391 392 393 394 395 396 397 398 399 400 401 402 403 404 405 408 410 411 413 -423 0 
-287 423 0 
-234 87 91 92 97 101 114 123 140 204 226 302 333 421 -423 0 
-288 199 223 286 425 -423 0 
-301 80 153 173 203 292 328 341 421 -423 0 
-302 87 91 92 97 101 114 123 140 204 226 234 333 412 -423 0 
-303 196 437 -423 0 
-304 109 413 -423 0 
-327 45 121 124 125 159 161 213 215 219 220 306 310 311 312 316 317 406 407 409 414 -423 0 
-126 117 149 363 413 -423 0 
-330 417 -423 0 
-53 2 13 48 52 67 84 289 416 -423 0 
-119 58 421 -423 0 
-359 423 0 
-61 -208 17 63 437 -423 0 
-360 -361 420 -423 0 
-362 47 154 156 365 -363 117 126 149 440 -423 0 
-364 194 421 -423 0 
-123 87 91 92 97 101 114 140 204 226 234 302 333 441 -423 0 
-365 47 154 156 362 -366 7 23 74 88 98 164 167 172 200 225 367 440 -423 0 
-367 7 23 74 88 98 164 167 172 200 225 366 439 -423 0 
-368 221 420 -423 0 
-364 194 425 -423 0 
